c User generated cnf file
p cnf 13 22
4 13 -8 0 
4 9 -1 0 
7 -8 3 0 
5 -3 2 0 
10 3 -4 0 
4 -11 13 0 
12 10 -10 0 
11 8 -5 0 
2 -10 12 0 
6 3 -10 0 
11 -9 4 0 
1 12 -12 0 
7 -6 10 0 
11 8 -10 0 
6 3 -3 0 
6 5 -7 0 
5 2 -9 0 
5 5 -7 0 
12 2 -6 0 
10 -5 12 0 
6 -5 4 0 
7 -10 7 0 
